c Result of efficient AIG-to-CNF conversion using package CNF
p cnf 244 831
2 3 43 46 -47 0
-2 47 0
-2 -46 0
-2 -3 0
-2 -43 0
3 181 213 -42 0
3 181 4 -42 0
3 213 4 -42 0
-3 -181 -213 0
-3 -213 -4 0
-3 42 0
-3 -181 -4 0
4 -5 -6 0
4 -5 -7 -8 0
-4 5 0
-4 6 8 0
-4 6 7 0
-5 182 214 0
5 -182 0
5 -214 0
6 -182 -214 0
-6 182 0
-6 214 0
-7 183 215 0
7 -183 0
7 -215 0
-8 184 9 10 0
-8 216 9 10 0
-8 184 216 9 0
8 -184 -216 0
8 -216 -10 0
8 -9 0
8 -184 -10 0
9 -183 -215 0
-9 183 0
-9 215 0
10 -185 -217 0
10 -217 -11 0
10 -185 -11 0
-10 185 11 0
-10 217 11 0
-10 185 217 0
11 -186 -218 0
11 -218 -12 0
11 -186 -12 0
-11 186 12 0
-11 218 12 0
-11 186 218 0
12 -187 -219 0
12 -219 -13 0
12 -187 -13 0
-12 187 13 0
-12 219 13 0
-12 187 219 0
13 -188 -220 0
13 -188 -14 -15 0
13 -220 -14 -15 0
-13 220 15 0
-13 188 14 0
-13 188 15 0
-13 220 14 0
-13 188 220 0
-14 189 221 0
14 -189 0
14 -221 0
-15 190 16 17 0
-15 222 16 17 0
-15 190 222 16 0
15 -190 -222 0
15 -222 -17 0
15 -16 0
15 -190 -17 0
16 -189 -221 0
-16 189 0
-16 221 0
17 -18 -19 0
17 -18 -20 -21 0
-17 18 0
-17 19 21 0
-17 19 20 0
-18 191 223 0
18 -191 0
18 -223 0
19 -191 -223 0
-19 191 0
-19 223 0
-20 192 224 0
20 -192 0
20 -224 0
-21 193 22 23 0
-21 225 22 23 0
-21 193 225 22 0
21 -193 -225 0
21 -225 -23 0
21 -22 0
21 -193 -23 0
22 -192 -224 0
-22 192 0
-22 224 0
23 -194 -226 0
23 -226 -24 0
23 -194 -24 0
-23 194 24 0
-23 226 24 0
-23 194 226 0
24 -195 -227 0
24 -227 -25 0
24 -195 -25 0
-24 195 25 0
-24 227 25 0
-24 195 227 0
25 -196 -228 0
25 -228 -26 0
25 -196 -26 0
-25 196 26 0
-25 228 26 0
-25 196 228 0
26 -197 -229 0
26 -229 -27 0
26 -197 -27 0
-26 197 27 0
-26 229 27 0
-26 197 229 0
27 -198 -230 0
27 -230 -28 0
27 -198 -28 0
-27 198 28 0
-27 230 28 0
-27 198 230 0
28 -199 -29 0
28 -231 -29 0
-28 29 0
-28 199 231 0
-29 199 30 0
-29 231 30 0
29 -30 0
29 -199 -231 0
30 -200 -232 0
30 -232 -31 0
30 -200 -31 0
-30 200 31 0
-30 232 31 0
-30 200 232 0
31 -201 -233 0
31 -233 -32 0
31 -201 -32 0
-31 201 32 0
-31 233 32 0
-31 201 233 0
32 -202 -234 0
32 -234 -33 0
32 -202 -33 0
-32 202 33 0
-32 234 33 0
-32 202 234 0
33 -203 -235 0
33 -235 -34 0
33 -203 -34 0
-33 203 34 0
-33 235 34 0
-33 203 235 0
34 -204 -236 0
34 -236 -35 0
34 -204 -35 0
-34 204 35 0
-34 236 35 0
-34 204 236 0
35 -205 -237 0
35 -237 -36 0
35 -205 -36 0
-35 205 36 0
-35 237 36 0
-35 205 237 0
36 -206 -238 0
36 -238 -37 0
36 -206 -37 0
-36 206 37 0
-36 238 37 0
-36 206 238 0
37 -207 -239 0
37 -239 -38 0
37 -207 -38 0
-37 207 38 0
-37 239 38 0
-37 207 239 0
38 -208 -240 0
38 -240 -39 0
38 -208 -39 0
-38 208 39 0
-38 240 39 0
-38 208 240 0
39 -209 -241 0
39 -241 -40 0
39 -209 -40 0
-39 209 40 0
-39 241 40 0
-39 209 241 0
40 -210 -242 0
40 -242 -41 0
40 -210 -41 0
-40 210 41 0
-40 242 41 0
-40 210 242 0
41 -211 -243 0
-41 211 0
-41 243 0
-42 -180 -212 0
-42 180 212 0
42 180 -212 0
42 -180 212 0
43 -10 44 0
43 -184 -216 -10 0
-43 10 0
-43 184 -44 0
-43 216 -44 0
44 215 -45 0
44 183 -45 0
-44 45 0
-44 -183 -215 0
45 182 -214 0
45 -182 214 0
-45 -182 -214 0
-45 182 214 0
46 -14 15 0
46 -188 -220 -14 0
-46 14 0
-46 220 -15 0
-46 188 -15 0
47 -13 -49 178 0
47 48 -49 178 0
-47 -178 0
-47 49 0
-47 13 -48 0
48 187 -219 0
48 -187 219 0
-48 -187 -219 0
-48 187 219 0
49 20 -52 174 0
49 -50 -52 174 0
-49 -174 0
-49 52 0
-49 -20 50 0
50 191 51 -21 0
50 223 51 -21 0
-50 21 0
-50 -51 0
-50 -191 -223 0
51 -190 -222 0
-51 190 0
-51 222 0
52 53 54 -57 0
52 23 54 -57 0
-52 57 0
-52 -54 0
-52 -53 -23 0
53 -193 -225 0
-53 193 0
-53 225 0
-54 -26 -55 56 0
-54 26 55 56 0
-54 26 -24 55 0
-54 -26 -24 -55 0
54 -26 55 0
54 26 -55 0
54 24 -56 0
55 196 -228 0
55 -196 228 0
-55 -196 -228 0
-55 196 228 0
56 194 -226 0
56 -194 226 0
-56 -194 -226 0
-56 194 226 0
57 24 -58 161 0
57 -56 -58 161 0
-57 -161 0
-57 58 0
-57 -24 56 0
58 -27 -59 -61 0
58 59 60 -61 0
-58 61 0
-58 27 -59 0
-58 59 -60 0
59 197 -229 0
59 -197 229 0
-59 -197 -229 0
-59 197 229 0
-60 198 230 28 0
60 -198 0
60 -28 0
60 -230 0
61 -31 -62 -63 0
61 31 62 -63 0
-61 63 0
-61 -31 62 0
-61 31 -62 0
62 200 -232 0
62 -200 232 0
-62 -200 -232 0
-62 200 232 0
-63 -64 0
-63 -66 68 0
-63 68 159 0
63 64 -68 0
63 64 66 -159 0
-64 203 -235 -34 -65 0
-64 -203 235 -34 -65 0
-64 203 235 34 65 0
-64 -203 -235 34 -65 0
64 -203 65 0
64 235 34 -65 0
64 -203 -235 -34 0
64 -235 65 0
64 203 34 -65 0
64 203 235 -34 0
65 202 -234 0
65 -202 234 0
-65 -202 -234 0
-65 202 234 0
66 38 -67 0
66 -38 67 0
-66 -38 -67 0
-66 38 67 0
67 207 -239 0
67 -207 239 0
-67 -207 -239 0
-67 207 239 0
68 69 -76 0
68 69 -151 0
68 69 -120 0
-68 -69 0
-68 76 120 151 0
-69 -70 -72 74 0
-69 36 70 72 74 0
69 -70 72 0
69 70 -72 0
69 -74 0
69 -36 70 0
70 237 -71 0
70 205 -71 0
-70 71 0
-70 -205 -237 0
71 204 -236 0
71 -204 236 0
-71 -204 -236 0
-71 204 236 0
72 -73 -36 0
72 -204 -236 -73 0
72 204 236 -73 0
-72 73 0
-72 -204 236 36 0
-72 204 -236 36 0
-73 205 237 0
73 -205 0
73 -237 0
74 37 -75 0
74 -37 75 0
-74 -37 -75 0
-74 37 75 0
75 206 -238 0
75 -206 238 0
-75 -206 -238 0
-75 206 238 0
76 66 -77 0
76 -66 -106 0
-76 -66 106 0
-76 66 77 0
77 78 -80 0
77 -78 -92 0
-77 -78 92 0
-77 78 80 0
78 39 -79 0
78 -39 79 0
-78 -39 -79 0
-78 39 79 0
79 208 -240 0
79 -208 240 0
-79 -208 -240 0
-79 208 240 0
80 -81 -83 0
80 81 -89 0
-80 81 89 0
-80 -81 83 0
81 40 -82 0
81 -40 82 0
-81 -40 -82 0
-81 40 82 0
82 209 -241 0
82 -209 241 0
-82 -209 -241 0
-82 209 241 0
83 84 -88 0
83 -84 -86 0
-83 -84 86 0
-83 84 88 0
84 41 -85 0
84 -41 85 0
-84 -41 -85 0
-84 41 85 0
85 210 -242 0
85 -210 242 0
-85 -210 -242 0
-85 210 242 0
-86 195 196 -87 0
-86 196 197 87 0
86 -196 0
86 -195 -87 0
86 -197 87 0
87 211 -243 0
87 -211 243 0
-87 -211 -243 0
-87 211 243 0
-88 197 198 -87 0
-88 198 199 87 0
88 -198 0
88 -197 -87 0
88 -199 87 0
89 84 -91 0
89 -84 -90 0
-89 -84 90 0
-89 84 91 0
-90 199 200 -87 0
-90 200 201 87 0
90 -200 0
90 -199 -87 0
90 -201 87 0
-91 201 202 -87 0
-91 202 203 87 0
91 -202 0
91 -201 -87 0
91 -203 87 0
-92 -81 93 103 0
-92 81 93 100 0
92 -93 0
92 -81 -103 0
92 81 -100 0
93 81 -94 0
93 -81 -97 0
-93 -81 97 0
-93 81 94 0
94 84 -95 0
94 -84 -96 0
-94 -84 96 0
-94 84 95 0
95 -194 87 0
95 -193 -87 0
-95 194 87 0
-95 193 -87 0
96 -192 87 0
96 -191 -87 0
-96 192 87 0
-96 191 -87 0
97 84 -98 0
97 -84 -99 0
-97 -84 99 0
-97 84 98 0
98 -190 87 0
98 -189 -87 0
-98 190 87 0
-98 189 -87 0
99 -188 87 0
99 -187 -87 0
-99 188 87 0
-99 187 -87 0
100 84 -101 0
100 -84 -102 0
-100 -84 102 0
-100 84 101 0
101 -195 87 0
101 -194 -87 0
-101 195 87 0
-101 194 -87 0
102 -193 87 0
102 -192 -87 0
-102 193 87 0
-102 192 -87 0
103 84 -104 0
103 -84 -105 0
-103 -84 105 0
-103 84 104 0
104 -191 87 0
104 -190 -87 0
-104 191 87 0
-104 190 -87 0
105 -189 87 0
105 -188 -87 0
-105 189 87 0
-105 188 -87 0
-106 -78 0
-106 107 113 0
106 78 -107 0
106 78 -113 0
107 81 -108 0
107 -81 -111 0
-107 -81 111 0
-107 81 108 0
108 84 -109 0
108 -84 -110 0
-108 -84 110 0
-108 84 109 0
109 -186 87 0
109 -185 -87 0
-109 186 87 0
-109 185 -87 0
110 -184 87 0
110 -183 -87 0
-110 184 87 0
-110 183 -87 0
111 84 -112 0
111 -180 -84 87 0
-111 84 112 0
-111 -84 -87 0
-111 180 -84 0
112 -182 87 0
112 -181 -87 0
-112 182 87 0
-112 181 -87 0
113 81 -114 0
113 -81 -117 0
-113 -81 117 0
-113 81 114 0
114 84 -115 0
114 -84 -116 0
-114 -84 116 0
-114 84 115 0
115 -187 87 0
115 -186 -87 0
-115 187 87 0
-115 186 -87 0
116 -185 87 0
116 -184 -87 0
-116 185 87 0
-116 184 -87 0
117 -84 -118 0
117 84 -119 0
-117 -84 118 0
-117 84 119 0
-118 181 87 0
-118 180 -87 0
118 -181 87 0
118 -180 -87 0
119 -183 87 0
119 -182 -87 0
-119 183 87 0
-119 182 -87 0
120 66 -121 0
120 66 -133 0
120 66 -126 0
-120 -66 0
-120 121 126 133 0
-121 -81 122 0
-121 81 124 125 0
121 -81 -122 0
121 81 -125 0
121 81 -124 0
-122 108 114 123 0
122 -108 0
122 -123 0
122 -114 0
123 84 -116 0
123 -84 -119 0
-123 -84 119 0
-123 84 116 0
124 84 -105 0
124 -84 -115 0
-124 -84 115 0
-124 84 105 0
-125 97 103 0
125 -97 0
125 -103 0
126 81 -127 0
126 78 81 -128 0
-126 -81 0
-126 -78 127 0
-126 127 128 0
-127 86 88 0
-127 84 88 0
127 -88 0
127 -84 -86 0
-128 209 87 129 0
-128 208 -87 129 0
128 -129 0
128 -209 87 0
128 -208 -87 0
-129 130 131 132 0
-129 -84 130 131 0
129 -130 0
129 -131 0
129 84 -132 0
-130 205 206 -87 0
-130 206 207 87 0
130 -206 0
130 -205 -87 0
130 -207 87 0
131 -208 87 0
131 -207 -87 0
-131 208 87 0
-131 207 -87 0
-132 209 210 243 0
-132 210 211 243 0
-132 209 210 211 0
132 -209 -211 0
132 -211 -243 0
132 -210 0
132 -209 -243 0
-133 134 139 146 0
-133 81 139 146 0
133 -139 0
133 -146 0
133 -81 -134 0
-134 -78 136 0
-134 90 135 136 0
134 -136 0
134 78 -90 0
134 78 -135 0
135 -84 -88 0
-135 84 0
-135 88 0
-136 94 100 137 0
136 -137 0
136 -100 0
136 -94 0
-137 -84 138 0
-137 84 96 102 0
137 84 -96 0
137 -84 -138 0
137 84 -102 0
-138 189 190 -87 0
-138 190 191 87 0
138 -190 0
138 -189 -87 0
138 -191 87 0
-139 84 140 145 0
-139 -84 140 144 0
139 -140 0
139 -84 -144 0
139 84 -145 0
140 78 -142 0
140 78 -91 -141 0
-140 -78 0
-140 91 142 0
-140 141 142 0
-141 81 84 0
141 -81 0
141 -84 0
-142 204 -84 143 0
-142 204 130 143 0
142 -204 0
142 -143 0
142 84 -130 0
143 -205 87 0
143 -203 -87 0
-143 205 87 0
-143 203 -87 0
-144 193 194 -87 0
-144 194 195 87 0
144 -194 0
144 -193 -87 0
144 -195 87 0
-145 -81 86 0
-145 86 90 0
145 -86 0
145 81 -90 0
146 -78 -80 0
146 -78 -150 0
146 -78 -147 0
-146 78 0
-146 80 147 150 0
147 81 -148 0
147 -81 -149 0
-147 -81 149 0
-147 81 148 0
148 84 -99 0
148 -84 -109 0
-148 -84 109 0
-148 84 99 0
149 84 -110 0
149 -84 -112 0
-149 -84 112 0
-149 84 110 0
-150 81 137 0
-150 -81 124 148 0
150 -81 -124 0
150 81 -137 0
150 -81 -148 0
-151 78 152 0
-151 107 113 152 0
151 -152 0
151 -78 -113 0
151 -78 -107 0
-152 -78 153 0
-152 153 158 0
-152 66 78 158 0
152 78 -158 0
152 -78 -153 0
152 -66 -153 0
-153 154 156 0
153 -154 0
153 -156 0
154 81 -155 0
-154 -81 0
-154 155 0
155 -180 84 0
155 -181 84 87 0
-155 -84 0
-155 180 -87 0
-155 180 181 0
-156 -81 157 0
-156 111 117 157 0
156 -157 0
156 81 -111 0
156 81 -117 0
-157 -81 155 0
-157 81 123 149 0
157 81 -123 0
157 -81 -155 0
157 81 -149 0
-158 92 121 147 150 0
158 -150 0
158 -92 0
158 -121 0
158 -147 0
159 69 78 -160 0
-159 -69 0
-159 160 0
-159 -78 0
-160 107 113 154 156 0
160 -156 0
160 -154 0
160 -107 0
160 -113 0
-161 25 162 168 169 0
-161 -25 162 -168 169 0
161 -169 0
161 -25 168 0
161 -162 0
161 25 -168 0
-162 7 163 167 0
-162 -45 163 167 0
162 -167 0
162 -163 0
162 -7 45 0
-163 -48 165 0
-163 164 14 165 0
163 -165 0
163 -164 48 0
163 -14 48 0
-164 188 220 0
164 -188 0
164 -220 0
-165 166 51 0
-165 18 -44 0
-165 51 -44 0
-165 166 18 0
165 -51 -18 0
165 -166 44 0
-166 184 216 0
166 -184 0
166 -216 0
-167 181 -42 0
-167 181 213 5 0
-167 213 -42 0
-167 5 -42 0
167 -5 42 0
167 -181 -213 -5 0
167 -181 42 0
167 -213 42 0
168 195 -227 0
168 -195 227 0
-168 -195 -227 0
-168 195 227 0
-169 32 170 171 172 0
-169 -32 -170 171 172 0
169 -171 0
169 -32 170 0
169 -172 0
169 32 -170 0
170 201 -233 0
170 -201 233 0
-170 -201 -233 0
-170 201 233 0
171 -199 -231 -30 0
171 199 231 -30 0
-171 30 0
-171 -199 231 0
-171 199 -231 0
172 -173 29 0
172 -198 -230 -173 0
-172 173 0
-172 230 -29 0
-172 198 -29 0
-173 199 231 0
173 -199 0
173 -231 0
-174 175 177 0
-174 189 -221 175 0
-174 -189 221 175 0
174 -175 0
174 189 221 -177 0
174 -189 -221 -177 0
175 -192 -224 -23 0
175 192 224 -176 0
175 192 224 -23 0
175 -192 -224 -176 0
-175 192 -224 0
-175 -192 224 0
-175 176 23 0
-176 193 225 0
176 -193 0
176 -225 0
-177 190 222 18 20 0
177 -190 0
177 -20 0
177 -18 0
177 -222 0
-178 186 -218 -12 -179 0
-178 -186 218 -12 -179 0
-178 186 218 12 179 0
-178 -186 -218 12 -179 0
178 -186 179 0
178 218 12 -179 0
178 -186 -218 -12 0
178 -218 179 0
178 186 12 -179 0
178 186 218 -12 0
179 185 -217 0
179 -185 217 0
-179 -185 -217 0
-179 185 217 0
-244 0
2 0

